
Gurobi 8.1.1 (win64, Python) logging started 10/22/19 13:25:27

Academic license - for non-commercial use only
Optimize a model with 14 rows, 19 columns and 53 nonzeros
Variable types: 0 continuous, 19 integer (3 binary)
Coefficient statistics:
  Matrix range     [1e+00, 1e+04]
  Objective range  [1e+00, 7e+01]
  Bounds range     [1e+00, 1e+00]
  RHS range        [1e+00, 8e+01]
Found heuristic solution: objective 743.0000000
Presolve removed 1 rows and 1 columns
Presolve time: 0.15s
Presolved: 13 rows, 18 columns, 52 nonzeros
Variable types: 0 continuous, 18 integer (2 binary)

Root relaxation: objective 6.230000e+02, 11 iterations, 0.01 seconds

    Nodes    |    Current Node    |     Objective Bounds      |     Work
 Expl Unexpl |  Obj  Depth IntInf | Incumbent    BestBd   Gap | It/Node Time

*    0     0               0     623.0000000  623.00000  0.00%     -    0s

Explored 0 nodes (11 simplex iterations) in 0.28 seconds
Thread count was 4 (of 4 available processors)

Solution count 2: 623 743 

Optimal solution found (tolerance 1.00e-04)
Best objective 6.230000000000e+02, best bound 6.230000000000e+02, gap 0.0000%

Gurobi 8.1.1 (win64, Python) logging started 10/24/19 00:57:47

Academic license - for non-commercial use only
Optimize a model with 14 rows, 19 columns and 53 nonzeros
Variable types: 0 continuous, 19 integer (3 binary)
Coefficient statistics:
  Matrix range     [1e+00, 1e+04]
  Objective range  [1e+00, 7e+01]
  Bounds range     [1e+00, 1e+00]
  RHS range        [1e+00, 8e+01]
Found heuristic solution: objective 743.0000000
Presolve removed 1 rows and 1 columns
Presolve time: 0.06s
Presolved: 13 rows, 18 columns, 52 nonzeros
Variable types: 0 continuous, 18 integer (2 binary)

Root relaxation: objective 6.230000e+02, 11 iterations, 0.02 seconds

    Nodes    |    Current Node    |     Objective Bounds      |     Work
 Expl Unexpl |  Obj  Depth IntInf | Incumbent    BestBd   Gap | It/Node Time

*    0     0               0     623.0000000  623.00000  0.00%     -    0s

Explored 0 nodes (11 simplex iterations) in 0.41 seconds
Thread count was 4 (of 4 available processors)

Solution count 2: 623 743 

Optimal solution found (tolerance 1.00e-04)
Best objective 6.230000000000e+02, best bound 6.230000000000e+02, gap 0.0000%
